Route #1: 0 118 32 45 62 27 58 41 92 75 43 103 28 86 0
Route #2: 0 76 46 21 119 47 17 136 104 81 67 42 59 24 7 0
Route #3: 0 79 124 10 13 23 9 38 69 94 112 114 85 95 0
Route #4: 0 56 109 110 97 120 133 93 106 55 1 111 122 30 0
Route #5: 0 91 84 57 8 15 65 72 61 129 137 108 26 70 88 0
Route #6: 0 54 20 80 50 34 4 22 126 19 48 11 101 105 0
Route #7: 0 3 52 60 100 134 37 102 135 68 63 138 82 130 127 121 0
Route #8: 0 98 83 39 51 44 12 90 5 49 36 25 115 123 16 0
Route #9: 0 73 78 64 77 18 116 128 40 14 33 71 117 2 99 0
Route #10: 0 29 87 66 113 6 96 53 125 131 74 31 35 107 132 89 0
Cost 27224:
